c 
c G(k,n,p) graph
c graph gen seed     : 3758
c number of vertices : 70
c max number of edges: 1225
c number of classes  : 2
c edge density       : 0.400000
c edge probability   : 0.800000
c data structure     : dense
c
c           Graph Stats
c number of vertices  : 70
c nonisolated vertices: 70
c number of edges     : 913
c edge density        : 0.378054
c max degree          : 40
c avg degree          : 26.09
c min degree          : 16
p col 70 913
e 1 5
e 1 6
e 1 8
e 1 10
e 1 11
e 1 15
e 1 19
e 1 21
e 1 22
e 1 25
e 1 30
e 1 32
e 1 33
e 1 34
e 1 37
e 1 40
e 1 43
e 1 46
e 1 64
e 2 6
e 2 10
e 2 11
e 2 12
e 2 13
e 2 15
e 2 19
e 2 21
e 2 22
e 2 26
e 2 30
e 2 32
e 2 34
e 2 37
e 2 40
e 2 43
e 2 46
e 2 51
e 2 64
e 2 67
e 3 5
e 3 6
e 3 8
e 3 10
e 3 11
e 3 12
e 3 13
e 3 15
e 3 19
e 3 21
e 3 22
e 3 25
e 3 26
e 3 34
e 3 37
e 3 40
e 3 43
e 3 46
e 3 51
e 3 67
e 4 5
e 4 6
e 4 8
e 4 10
e 4 11
e 4 13
e 4 15
e 4 19
e 4 21
e 4 22
e 4 25
e 4 26
e 4 30
e 4 32
e 4 33
e 4 34
e 4 37
e 4 38
e 4 43
e 4 46
e 4 51
e 4 64
e 4 67
e 5 7
e 5 9
e 5 16
e 5 17
e 5 18
e 5 20
e 5 23
e 5 24
e 5 27
e 5 28
e 5 29
e 5 31
e 5 35
e 5 39
e 5 44
e 5 45
e 5 47
e 5 48
e 5 49
e 5 50
e 5 53
e 5 55
e 5 56
e 5 57
e 5 59
e 5 60
e 5 61
e 5 62
e 5 63
e 5 65
e 5 66
e 5 68
e 5 69
e 5 70
e 6 7
e 6 9
e 6 16
e 6 17
e 6 20
e 6 23
e 6 24
e 6 27
e 6 28
e 6 29
e 6 35
e 6 36
e 6 41
e 6 45
e 6 47
e 6 48
e 6 50
e 6 52
e 6 53
e 6 54
e 6 56
e 6 57
e 6 58
e 6 59
e 6 60
e 6 61
e 6 62
e 6 65
e 6 66
e 6 68
e 6 69
e 6 70
e 7 8
e 7 10
e 7 12
e 7 13
e 7 15
e 7 19
e 7 22
e 7 25
e 7 26
e 7 32
e 7 33
e 7 34
e 7 37
e 7 38
e 7 40
e 7 43
e 7 46
e 7 51
e 7 64
e 7 67
e 8 9
e 8 14
e 8 16
e 8 18
e 8 20
e 8 23
e 8 24
e 8 28
e 8 29
e 8 31
e 8 35
e 8 36
e 8 39
e 8 41
e 8 42
e 8 44
e 8 45
e 8 47
e 8 48
e 8 49
e 8 50
e 8 52
e 8 53
e 8 54
e 8 55
e 8 56
e 8 57
e 8 58
e 8 60
e 8 61
e 8 62
e 8 63
e 8 65
e 8 66
e 8 69
e 8 70
e 9 10
e 9 11
e 9 12
e 9 13
e 9 15
e 9 19
e 9 21
e 9 22
e 9 25
e 9 26
e 9 30
e 9 32
e 9 33
e 9 34
e 9 37
e 9 38
e 9 40
e 9 43
e 9 46
e 9 67
e 10 14
e 10 16
e 10 17
e 10 18
e 10 20
e 10 24
e 10 27
e 10 28
e 10 29
e 10 31
e 10 35
e 10 36
e 10 41
e 10 42
e 10 44
e 10 45
e 10 47
e 10 48
e 10 49
e 10 52
e 10 53
e 10 54
e 10 56
e 10 57
e 10 58
e 10 60
e 10 62
e 10 63
e 10 65
e 10 66
e 10 69
e 10 70
e 11 14
e 11 16
e 11 18
e 11 23
e 11 24
e 11 27
e 11 28
e 11 29
e 11 31
e 11 35
e 11 36
e 11 41
e 11 42
e 11 44
e 11 45
e 11 47
e 11 48
e 11 49
e 11 52
e 11 53
e 11 54
e 11 55
e 11 57
e 11 58
e 11 59
e 11 60
e 11 62
e 11 63
e 11 66
e 11 69
e 11 70
e 12 16
e 12 17
e 12 18
e 12 20
e 12 23
e 12 27
e 12 28
e 12 29
e 12 31
e 12 36
e 12 39
e 12 42
e 12 44
e 12 45
e 12 47
e 12 49
e 12 50
e 12 52
e 12 53
e 12 54
e 12 55
e 12 56
e 12 57
e 12 58
e 12 59
e 12 60
e 12 61
e 12 62
e 12 65
e 12 66
e 12 68
e 12 69
e 12 70
e 13 14
e 13 16
e 13 17
e 13 23
e 13 27
e 13 28
e 13 31
e 13 35
e 13 36
e 13 42
e 13 44
e 13 45
e 13 47
e 13 48
e 13 49
e 13 50
e 13 52
e 13 53
e 13 54
e 13 55
e 13 56
e 13 57
e 13 58
e 13 60
e 13 61
e 13 62
e 13 63
e 13 65
e 13 68
e 13 69
e 13 70
e 14 15
e 14 22
e 14 25
e 14 26
e 14 30
e 14 32
e 14 33
e 14 34
e 14 37
e 14 40
e 14 43
e 14 46
e 14 51
e 14 64
e 14 67
e 15 16
e 15 17
e 15 18
e 15 23
e 15 27
e 15 28
e 15 29
e 15 31
e 15 35
e 15 39
e 15 41
e 15 42
e 15 44
e 15 45
e 15 48
e 15 49
e 15 50
e 15 52
e 15 53
e 15 54
e 15 55
e 15 56
e 15 57
e 15 59
e 15 60
e 15 61
e 15 62
e 15 63
e 15 65
e 15 66
e 15 68
e 15 69
e 16 21
e 16 22
e 16 25
e 16 26
e 16 30
e 16 33
e 16 34
e 16 37
e 16 38
e 16 43
e 16 46
e 16 51
e 16 64
e 16 67
e 17 22
e 17 25
e 17 26
e 17 30
e 17 32
e 17 33
e 17 37
e 17 38
e 17 43
e 17 46
e 17 51
e 17 64
e 17 67
e 18 19
e 18 21
e 18 22
e 18 25
e 18 26
e 18 30
e 18 32
e 18 33
e 18 37
e 18 38
e 18 40
e 18 43
e 18 46
e 18 51
e 18 64
e 18 67
e 19 20
e 19 23
e 19 24
e 19 27
e 19 31
e 19 35
e 19 36
e 19 39
e 19 41
e 19 42
e 19 44
e 19 47
e 19 48
e 19 49
e 19 50
e 19 52
e 19 53
e 19 54
e 19 56
e 19 57
e 19 58
e 19 59
e 19 60
e 19 62
e 19 63
e 19 65
e 19 66
e 19 68
e 19 70
e 20 21
e 20 22
e 20 25
e 20 26
e 20 34
e 20 37
e 20 38
e 20 40
e 20 43
e 20 51
e 21 23
e 21 24
e 21 27
e 21 28
e 21 29
e 21 31
e 21 35
e 21 36
e 21 41
e 21 44
e 21 45
e 21 49
e 21 50
e 21 54
e 21 55
e 21 56
e 21 58
e 21 59
e 21 61
e 21 62
e 21 63
e 21 66
e 21 68
e 21 69
e 21 70
e 22 23
e 22 24
e 22 27
e 22 28
e 22 31
e 22 35
e 22 36
e 22 39
e 22 41
e 22 44
e 22 45
e 22 48
e 22 49
e 22 50
e 22 52
e 22 53
e 22 54
e 22 55
e 22 56
e 22 59
e 22 61
e 22 62
e 22 63
e 22 65
e 22 66
e 22 68
e 22 69
e 22 70
e 23 25
e 23 30
e 23 32
e 23 34
e 23 37
e 23 38
e 23 40
e 23 46
e 23 51
e 23 64
e 23 67
e 24 25
e 24 32
e 24 33
e 24 34
e 24 37
e 24 40
e 24 43
e 24 46
e 24 51
e 24 64
e 25 27
e 25 29
e 25 31
e 25 36
e 25 39
e 25 41
e 25 42
e 25 44
e 25 47
e 25 48
e 25 50
e 25 52
e 25 53
e 25 54
e 25 55
e 25 56
e 25 59
e 25 60
e 25 61
e 25 63
e 25 65
e 25 68
e 25 69
e 25 70
e 26 27
e 26 29
e 26 31
e 26 35
e 26 36
e 26 39
e 26 41
e 26 42
e 26 44
e 26 45
e 26 48
e 26 49
e 26 50
e 26 52
e 26 53
e 26 54
e 26 55
e 26 57
e 26 58
e 26 59
e 26 60
e 26 61
e 26 62
e 26 63
e 26 65
e 26 66
e 26 68
e 26 69
e 26 70
e 27 30
e 27 32
e 27 33
e 27 34
e 27 38
e 27 40
e 27 43
e 27 51
e 27 64
e 27 67
e 28 32
e 28 33
e 28 34
e 28 37
e 28 38
e 28 40
e 28 43
e 28 46
e 28 51
e 28 67
e 29 30
e 29 32
e 29 33
e 29 34
e 29 37
e 29 38
e 29 43
e 29 46
e 29 51
e 29 67
e 30 31
e 30 35
e 30 39
e 30 42
e 30 47
e 30 48
e 30 49
e 30 50
e 30 52
e 30 53
e 30 54
e 30 55
e 30 57
e 30 58
e 30 60
e 30 61
e 30 65
e 30 66
e 30 68
e 30 69
e 30 70
e 31 32
e 31 34
e 31 37
e 31 38
e 31 40
e 31 43
e 31 46
e 31 51
e 31 64
e 32 36
e 32 41
e 32 42
e 32 44
e 32 45
e 32 47
e 32 48
e 32 49
e 32 50
e 32 52
e 32 53
e 32 55
e 32 56
e 32 57
e 32 58
e 32 59
e 32 60
e 32 61
e 32 62
e 32 65
e 32 69
e 32 70
e 33 35
e 33 39
e 33 41
e 33 42
e 33 44
e 33 45
e 33 49
e 33 50
e 33 53
e 33 54
e 33 55
e 33 56
e 33 57
e 33 58
e 33 60
e 33 61
e 33 62
e 33 63
e 33 65
e 33 66
e 33 68
e 33 69
e 33 70
e 34 36
e 34 39
e 34 41
e 34 42
e 34 44
e 34 47
e 34 49
e 34 52
e 34 54
e 34 56
e 34 58
e 34 59
e 34 61
e 34 62
e 34 63
e 34 65
e 34 66
e 34 68
e 35 38
e 35 43
e 35 46
e 35 51
e 35 64
e 35 67
e 36 37
e 36 38
e 36 40
e 36 43
e 36 46
e 36 51
e 36 64
e 36 67
e 37 39
e 37 41
e 37 42
e 37 44
e 37 45
e 37 47
e 37 49
e 37 50
e 37 52
e 37 53
e 37 54
e 37 56
e 37 57
e 37 58
e 37 59
e 37 61
e 37 62
e 37 63
e 37 65
e 37 66
e 37 69
e 37 70
e 38 41
e 38 42
e 38 45
e 38 47
e 38 48
e 38 49
e 38 50
e 38 53
e 38 54
e 38 55
e 38 56
e 38 57
e 38 59
e 38 60
e 38 61
e 38 62
e 38 63
e 38 65
e 38 66
e 38 69
e 38 70
e 39 40
e 39 43
e 39 64
e 39 67
e 40 41
e 40 42
e 40 45
e 40 47
e 40 49
e 40 50
e 40 52
e 40 53
e 40 55
e 40 56
e 40 57
e 40 59
e 40 60
e 40 61
e 40 62
e 40 63
e 40 65
e 40 66
e 40 68
e 40 69
e 40 70
e 41 43
e 41 46
e 41 51
e 41 64
e 41 67
e 42 43
e 42 46
e 42 64
e 42 67
e 43 44
e 43 45
e 43 47
e 43 48
e 43 50
e 43 52
e 43 53
e 43 54
e 43 57
e 43 59
e 43 61
e 43 62
e 43 63
e 43 65
e 43 66
e 43 68
e 43 69
e 44 46
e 44 51
e 44 64
e 45 46
e 45 51
e 45 64
e 45 67
e 46 47
e 46 48
e 46 49
e 46 52
e 46 53
e 46 54
e 46 57
e 46 58
e 46 60
e 46 62
e 46 63
e 46 65
e 46 66
e 46 68
e 46 69
e 46 70
e 47 51
e 47 64
e 47 67
e 48 51
e 48 64
e 48 67
e 49 51
e 49 64
e 49 67
e 50 51
e 50 64
e 50 67
e 51 52
e 51 53
e 51 54
e 51 55
e 51 59
e 51 60
e 51 61
e 51 62
e 51 63
e 51 66
e 51 68
e 51 70
e 52 64
e 52 67
e 53 67
e 54 64
e 54 67
e 55 64
e 55 67
e 56 64
e 56 67
e 57 64
e 57 67
e 58 64
e 58 67
e 60 64
e 60 67
e 61 64
e 61 67
e 62 64
e 62 67
e 63 64
e 64 65
e 64 66
e 64 69
e 64 70
e 65 67
e 67 68
e 67 69
e 67 70
